Route #1: 89 60 5 84 17 61 16 86 38 44 14 43 42 97
Route #2: 94 95 59 92 37 98 100 91 85 93 99 96 6
Route #3: 53 40 21 73 72 74 22 41 15 57 87 13
Route #4: 26 54 55 25 4 39 67 23 56 75 2 58
Route #5: 12 68 80 24 29 34 78 79 3 77 76 28
Route #6: 69 1 70 30 20 66 65 71 35 9 51 81 33 50
Route #7: 52 7 82 48 19 11 62 88 27
Route #8: 31 10 32 90 63 64 49 36 47 46 8 45 83 18
Cost 821
Time 0.159042
